% Logging successfully configured
%%%mzn-stat: initTime=0.012296904
%%%mzn-stat: objective=1122
%%%mzn-stat: nodes=1204
%%%mzn-stat: restarts=0
%%%mzn-stat: peakDepth=557
%%%mzn-stat: solveTime=0.135264974
%%%mzn-stat: variables=1052
%%%mzn-stat: propagators=765
%%%mzn-stat: failures=127
%%%mzn-stat: propagations=11614
%%%mzn-stat: nogoods=127
%%%mzn-stat: numAtomicConstraintsPropagated=0
%%%mzn-stat: allDifferentNumber1PropagationsTotal=1746
%%%mzn-stat: allDifferentNumber1PropagationsThatFoundConflict=5
%%%mzn-stat: allDifferentNumber1PropagationsThatPruned=992
%%%mzn-stat: allDifferentNumber1TotalValuesPruned=3265
%%%mzn-stat: allDifferentNumber1TotalHallSetSizeConflict=49
%%%mzn-stat: allDifferentNumber1NumberOfConflicts=5
%%%mzn-stat: allDifferentNumber1MaxHallSetSizeConflict=12
%%%mzn-stat: allDifferentNumber1TotalPruningHallSetSize=13595
%%%mzn-stat: allDifferentNumber1NumberOfPruningExplanations=3265
%%%mzn-stat: allDifferentNumber1MaxPruningHallSetSize=81
%%%mzn-stat: allDifferentNumber1TotalFixedEdgesAtConflict=299
%%%mzn-stat: allDifferentNumber1TotalVarsInvolvedInPruning=2815
%%%mzn-stat: allDifferentNumber1MaxValuesPrunedFromSingleVar=5
%%%mzn-stat: allDifferentNumber1TotalSccSizeAtPruning=6514
%%%mzn-stat: allDifferentNumber1NumberOfSccPruningCalls=992
%%%mzn-stat: circuitNumber2PropagationsThatFoundConflict=122
%%%mzn-stat: circuitNumber2TotalFixedEdgesAtConflict=9032
%%%mzn-stat: circuitNumber2NumberOfConflicts=122
%%%mzn-stat: circuitNumber2PropagationsThatPruned=131
%%%mzn-stat: circuitNumber2PropagationsTotal=969
%%%mzn-stat: AverageConflictSize=11.913385826771654
%%%mzn-stat: NumUnitNogoodsLearned=0
%%%mzn-stat: AverageLearnedNogoodLength=13.275590551181102
%%%mzn-stat: AverageBacktrackAmount=0
%%%mzn-stat: AverageLbd=8.874015748031496
%%%mzn-stat: 2AutonomousSearchNumBackupCalled=501
%%%mzn-stat: 2AutonomousSearchNumPredicatesRemoved=0
%%%mzn-stat: 2AutonomousSearchNumCalls=502
%%%mzn-stat: 2AutonomousSearchNumPredicatesAdded=3600
%%%mzn-stat: 2AutonomousSearchAverageSizeOfHeap=7.171314741035856
%%%mzn-stat: 2AutonomousSearchNumAssignedPredicatesEncountered=3600
%%%mzn-stat-end
maxleg = 1122;
succ = array1d(1..100,[10, 12, 11, 70, 57, 9, 14, 25, 46, 4, 15, 5, 37, 23, 19, 3, 42, 59, 20, 31, 1, 2, 24, 6, 38, 35, 36, 91, 51, 48, 44, 28, 58, 45, 22, 72, 47, 41, 13, 80, 60, 55, 73, 49, 78, 29, 61, 63, 76, 33, 81, 8, 79, 30, 87, 88, 43, 65, 84, 99, 62, 52, 7, 82, 100, 26, 34, 54, 64, 94, 89, 97, 96, 17, 40, 86, 18, 75, 71, 85, 69, 27, 92, 53, 66, 39, 32, 83, 95, 77, 16, 50, 90, 56, 68, 93, 98, 74, 21, 67]);
% time elapsed: 0.58 s
----------
%%%mzn-stat: initTime=0.012296904
%%%mzn-stat: objective=806
%%%mzn-stat: nodes=2788
%%%mzn-stat: restarts=0
%%%mzn-stat: peakDepth=564
%%%mzn-stat: solveTime=0.378933506
%%%mzn-stat: variables=1052
%%%mzn-stat: propagators=765
%%%mzn-stat: failures=325
%%%mzn-stat: propagations=28477
%%%mzn-stat: nogoods=325
%%%mzn-stat: numAtomicConstraintsPropagated=0
%%%mzn-stat: allDifferentNumber1PropagationsTotal=4700
%%%mzn-stat: allDifferentNumber1PropagationsThatFoundConflict=8
%%%mzn-stat: allDifferentNumber1PropagationsThatPruned=2734
%%%mzn-stat: allDifferentNumber1TotalValuesPruned=8704
%%%mzn-stat: allDifferentNumber1TotalHallSetSizeConflict=199
%%%mzn-stat: allDifferentNumber1NumberOfConflicts=8
%%%mzn-stat: allDifferentNumber1MaxHallSetSizeConflict=74
%%%mzn-stat: allDifferentNumber1TotalPruningHallSetSize=45824
%%%mzn-stat: allDifferentNumber1NumberOfPruningExplanations=8704
%%%mzn-stat: allDifferentNumber1MaxPruningHallSetSize=81
%%%mzn-stat: allDifferentNumber1TotalFixedEdgesAtConflict=404
%%%mzn-stat: allDifferentNumber1TotalVarsInvolvedInPruning=7367
%%%mzn-stat: allDifferentNumber1MaxValuesPrunedFromSingleVar=5
%%%mzn-stat: allDifferentNumber1TotalSccSizeAtPruning=19995
%%%mzn-stat: allDifferentNumber1NumberOfSccPruningCalls=2734
%%%mzn-stat: circuitNumber2PropagationsThatFoundConflict=314
%%%mzn-stat: circuitNumber2TotalFixedEdgesAtConflict=22730
%%%mzn-stat: circuitNumber2NumberOfConflicts=314
%%%mzn-stat: circuitNumber2PropagationsThatPruned=493
%%%mzn-stat: circuitNumber2PropagationsTotal=2684
%%%mzn-stat: AverageConflictSize=10.255384615384616
%%%mzn-stat: NumUnitNogoodsLearned=0
%%%mzn-stat: AverageLearnedNogoodLength=10.726153846153846
%%%mzn-stat: AverageBacktrackAmount=0
%%%mzn-stat: AverageLbd=6.913846153846154
%%%mzn-stat: 2AutonomousSearchNumBackupCalled=1006
%%%mzn-stat: 2AutonomousSearchNumPredicatesRemoved=0
%%%mzn-stat: 2AutonomousSearchNumCalls=1008
%%%mzn-stat: 2AutonomousSearchNumPredicatesAdded=5832
%%%mzn-stat: 2AutonomousSearchAverageSizeOfHeap=8.028769841269842
%%%mzn-stat: 2AutonomousSearchNumAssignedPredicatesEncountered=8093
%%%mzn-stat-end
maxleg = 806;
succ = array1d(1..100,[10, 12, 11, 70, 57, 9, 14, 25, 46, 4, 15, 5, 37, 23, 19, 3, 42, 59, 91, 31, 1, 2, 24, 6, 38, 35, 36, 8, 51, 48, 82, 71, 16, 45, 40, 64, 56, 52, 44, 80, 60, 55, 26, 49, 78, 84, 39, 54, 76, 58, 69, 61, 29, 89, 87, 88, 41, 65, 53, 99, 62, 47, 7, 97, 67, 34, 100, 95, 81, 94, 18, 27, 43, 17, 22, 86, 90, 75, 77, 85, 68, 72, 92, 79, 66, 20, 32, 83, 63, 93, 28, 50, 96, 13, 30, 73, 98, 74, 21, 33]);
% time elapsed: 0.80 s
----------
%%%mzn-stat: initTime=0.012296904
%%%mzn-stat: objective=762
%%%mzn-stat: nodes=6303
%%%mzn-stat: restarts=0
%%%mzn-stat: peakDepth=564
%%%mzn-stat: solveTime=1.459166862
%%%mzn-stat: variables=1052
%%%mzn-stat: propagators=765
%%%mzn-stat: failures=1426
%%%mzn-stat: propagations=83324
%%%mzn-stat: nogoods=1426
%%%mzn-stat: numAtomicConstraintsPropagated=0
%%%mzn-stat: allDifferentNumber1PropagationsTotal=13374
%%%mzn-stat: allDifferentNumber1PropagationsThatFoundConflict=9
%%%mzn-stat: allDifferentNumber1PropagationsThatPruned=7806
%%%mzn-stat: allDifferentNumber1TotalValuesPruned=25775
%%%mzn-stat: allDifferentNumber1TotalHallSetSizeConflict=204
%%%mzn-stat: allDifferentNumber1NumberOfConflicts=9
%%%mzn-stat: allDifferentNumber1MaxHallSetSizeConflict=74
%%%mzn-stat: allDifferentNumber1TotalPruningHallSetSize=122499
%%%mzn-stat: allDifferentNumber1NumberOfPruningExplanations=25775
%%%mzn-stat: allDifferentNumber1MaxPruningHallSetSize=81
%%%mzn-stat: allDifferentNumber1TotalFixedEdgesAtConflict=448
%%%mzn-stat: allDifferentNumber1TotalVarsInvolvedInPruning=21353
%%%mzn-stat: allDifferentNumber1MaxValuesPrunedFromSingleVar=5
%%%mzn-stat: allDifferentNumber1TotalSccSizeAtPruning=62113
%%%mzn-stat: allDifferentNumber1NumberOfSccPruningCalls=7806
%%%mzn-stat: circuitNumber2PropagationsThatFoundConflict=1406
%%%mzn-stat: circuitNumber2TotalFixedEdgesAtConflict=108634
%%%mzn-stat: circuitNumber2NumberOfConflicts=1406
%%%mzn-stat: circuitNumber2PropagationsThatPruned=1369
%%%mzn-stat: circuitNumber2PropagationsTotal=7903
%%%mzn-stat: AverageConflictSize=27.454417952314166
%%%mzn-stat: NumUnitNogoodsLearned=0
%%%mzn-stat: AverageLearnedNogoodLength=32.684431977559605
%%%mzn-stat: AverageBacktrackAmount=0
%%%mzn-stat: AverageLbd=18.46914446002805
%%%mzn-stat: 2AutonomousSearchNumBackupCalled=1510
%%%mzn-stat: 2AutonomousSearchNumPredicatesRemoved=0
%%%mzn-stat: 2AutonomousSearchNumCalls=1513
%%%mzn-stat: 2AutonomousSearchNumPredicatesAdded=9842
%%%mzn-stat: 2AutonomousSearchAverageSizeOfHeap=8.922009253139459
%%%mzn-stat: 2AutonomousSearchNumAssignedPredicatesEncountered=13499
%%%mzn-stat-end
maxleg = 762;
succ = array1d(1..100,[10, 12, 11, 70, 57, 9, 14, 25, 46, 4, 15, 5, 37, 23, 19, 3, 42, 59, 91, 31, 1, 2, 24, 6, 38, 35, 36, 52, 51, 48, 44, 71, 16, 45, 40, 72, 47, 41, 13, 80, 73, 55, 26, 49, 78, 69, 61, 54, 76, 58, 81, 62, 29, 89, 87, 88, 60, 65, 53, 99, 8, 20, 7, 82, 67, 34, 100, 95, 64, 94, 77, 97, 93, 17, 22, 86, 79, 75, 84, 85, 68, 27, 92, 96, 66, 39, 32, 83, 63, 18, 28, 50, 90, 56, 30, 43, 98, 74, 21, 33]);
% time elapsed: 1.89 s
----------
==========
% time elapsed: 2.45 s
%%%mzn-stat: initTime=0.012296904
%%%mzn-stat: objective=762
%%%mzn-stat: nodes=8445
%%%mzn-stat: restarts=0
%%%mzn-stat: peakDepth=564
%%%mzn-stat: solveTime=2.026356585
%%%mzn-stat: variables=1052
%%%mzn-stat: propagators=765
%%%mzn-stat: failures=1828
%%%mzn-stat: propagations=115748
%%%mzn-stat: nogoods=1828
%%%mzn-stat: numAtomicConstraintsPropagated=0
%%%mzn-stat: allDifferentNumber1PropagationsTotal=19076
%%%mzn-stat: allDifferentNumber1PropagationsThatFoundConflict=10
%%%mzn-stat: allDifferentNumber1PropagationsThatPruned=11190
%%%mzn-stat: allDifferentNumber1TotalValuesPruned=38245
%%%mzn-stat: allDifferentNumber1TotalHallSetSizeConflict=206
%%%mzn-stat: allDifferentNumber1NumberOfConflicts=10
%%%mzn-stat: allDifferentNumber1MaxHallSetSizeConflict=74
%%%mzn-stat: allDifferentNumber1TotalPruningHallSetSize=210278
%%%mzn-stat: allDifferentNumber1NumberOfPruningExplanations=38245
%%%mzn-stat: allDifferentNumber1MaxPruningHallSetSize=95
%%%mzn-stat: allDifferentNumber1TotalFixedEdgesAtConflict=501
%%%mzn-stat: allDifferentNumber1TotalVarsInvolvedInPruning=31820
%%%mzn-stat: allDifferentNumber1MaxValuesPrunedFromSingleVar=5
%%%mzn-stat: allDifferentNumber1TotalSccSizeAtPruning=83912
%%%mzn-stat: allDifferentNumber1NumberOfSccPruningCalls=11190
%%%mzn-stat: circuitNumber2PropagationsThatFoundConflict=1807
%%%mzn-stat: circuitNumber2TotalFixedEdgesAtConflict=135581
%%%mzn-stat: circuitNumber2NumberOfConflicts=1807
%%%mzn-stat: circuitNumber2PropagationsThatPruned=1905
%%%mzn-stat: circuitNumber2PropagationsTotal=11312
%%%mzn-stat: AverageConflictSize=25.74671772428884
%%%mzn-stat: NumUnitNogoodsLearned=1
%%%mzn-stat: AverageLearnedNogoodLength=29.37800875273523
%%%mzn-stat: AverageBacktrackAmount=0
%%%mzn-stat: AverageLbd=16.479759299781183
%%%mzn-stat: 2AutonomousSearchNumBackupCalled=1510
%%%mzn-stat: 2AutonomousSearchNumPredicatesRemoved=0
%%%mzn-stat: 2AutonomousSearchNumCalls=1513
%%%mzn-stat: 2AutonomousSearchNumPredicatesAdded=12192
%%%mzn-stat: 2AutonomousSearchAverageSizeOfHeap=8.922009253139459
%%%mzn-stat: 2AutonomousSearchNumAssignedPredicatesEncountered=13499
%%%mzn-stat-end
